
  32    4
  10   10   10   10

   0   0   0   0   0   7 2 26 27 28 29 30 31 
   3  10  10  10  10   4 25 24 23 3 
   3  10  10  10  10   1 4 
   2  10  10  10  10   4 22 21 20 5 
   1  10  10  10  10   1 6 
   5  10  10  10  10   4 19 18 17 7 
  10  10  10  10  10   1 8 
   6  10  10  10  10   1 9 
   5  10  10  10  10   1 10 
   3  10  10  10  10   1 11 
   3  10  10  10  10   1 12 
   4  10  10  10  10   1 13 
   1  10  10  10  10   1 14 
   7  10  10  10  10   1 15 
   3  10  10  10  10   1 16 
   1  10  10  10  10   1 32
   1  10  10  10  10   1 32
   8  10  10  10  10   1 32
   9  10  10  10  10   1 32
   8  10  10  10  10   1 32
   7  10  10  10  10   1 32
   6  10  10  10  10   1 32
   1  10  10  10  10   1 32
   4  10  10  10  10   1 32
   2  10  10  10  10   1 32
   7  10  10  10  10   1 32
   7  10  10  10  10   1 32
   3  10  10  10  10   1 32
   7  10  10  10  10   1 32
   8  10  10  10  10   1 32
   2  10  10  10  10   1 32
   0   0   0   0   0   0 
